language Essence 1.3

letting class be
        function(1 --> 7, 2 --> 8, 3 --> 6, 4 --> 4, 5 --> 9, 6 --> 2, 7 --> 6, 8 --> 5, 9 --> 8, 10 --> 2, 11 --> 9,
                 12 --> 2, 13 --> 1, 14 --> 9, 15 --> 9, 16 --> 1, 17 --> 8, 18 --> 1, 19 --> 6, 20 --> 3, 21 --> 5,
                 22 --> 3, 23 --> 6, 24 --> 3, 25 --> 5)
letting deck_length be 25
letting deck_width be 75
letting length be
        function(1 --> 9, 2 --> 11, 3 --> 11, 4 --> 14, 5 --> 3, 6 --> 10, 7 --> 3, 8 --> 6, 9 --> 2, 10 --> 10,
                 11 --> 17, 12 --> 10, 13 --> 5, 14 --> 15, 15 --> 15, 16 --> 14, 17 --> 11, 18 --> 24, 19 --> 9,
                 20 --> 3, 21 --> 14, 22 --> 23, 23 --> 5, 24 --> 20, 25 --> 23)
letting n_classes be 9
letting n_containers be 25
letting separation be function()
letting width be
        function(1 --> 1, 2 --> 1, 3 --> 3, 4 --> 1, 5 --> 1, 6 --> 1, 7 --> 1, 8 --> 1, 9 --> 2, 10 --> 1, 11 --> 6,
                 12 --> 1, 13 --> 1, 14 --> 8, 15 --> 1, 16 --> 1, 17 --> 1, 18 --> 36, 19 --> 1, 20 --> 1, 21 --> 1,
                 22 --> 11, 23 --> 1, 24 --> 3, 25 --> 10)
